
Log started (V12.10.0.0) Fri Apr  9 00:25:11 2021


Problem 'asset.lp' read.
Read time = 0.00 sec. (0.14 ticks)
New value for default parallel thread count: 1
New value for time limit in seconds: 200
Version identifier: 12.10.0.0 | 2019-11-26 | 843d4de
CPXPARAM_Threads                                 1
CPXPARAM_TimeLimit                               200
Found incumbent of value -0.889997 after 0.00 sec. (0.07 ticks)
Tried aggregator 3 times.
MIP Presolve eliminated 598 rows and 374 columns.
MIP Presolve modified 1326 coefficients.
Aggregator did 312 substitutions.
Reduced MIP has 439 rows, 504 columns, and 2009 nonzeros.
Reduced MIP has 408 binaries, 68 generals, 0 SOSs, and 0 indicators.
Presolve time = 0.01 sec. (5.01 ticks)
Probing fixed 48 vars, tightened 3 bounds.
Probing time = 0.00 sec. (1.26 ticks)
Cover probing fixed 0 vars, tightened 20 bounds.
Tried aggregator 1 time.
MIP Presolve eliminated 60 rows and 60 columns.
MIP Presolve modified 80 coefficients.
Reduced MIP has 379 rows, 444 columns, and 1611 nonzeros.
Reduced MIP has 351 binaries, 65 generals, 0 SOSs, and 0 indicators.
Presolve time = 0.00 sec. (1.45 ticks)
Probing time = 0.00 sec. (0.91 ticks)
Tried aggregator 1 time.
Detecting symmetries...
MIP Presolve modified 96 coefficients.
Reduced MIP has 379 rows, 444 columns, and 1611 nonzeros.
Reduced MIP has 351 binaries, 65 generals, 0 SOSs, and 0 indicators.
Presolve time = 0.00 sec. (1.11 ticks)
Probing time = 0.00 sec. (0.92 ticks)
Clique table members: 1181.
MIP emphasis: balance optimality and feasibility.
MIP search method: dynamic search.
Parallel mode: none, using 1 thread.
Root relaxation solution time = 0.00 sec. (3.26 ticks)

        Nodes                                         Cuts/
   Node  Left     Objective  IInf  Best Integer    Best Bound    ItCnt     Gap

*     0+    0                           -0.8900      340.5497              --- 
      0     0      291.4307   128       -0.8900      291.4307      273     --- 
      0     0      281.1424   128       -0.8900     Cuts: 194      555     --- 
      0     0      279.3900   128       -0.8900     Cuts: 194      716     --- 
      0     0      277.3476   128       -0.8900     Cuts: 125      833     --- 
      0     0      274.5509   128       -0.8900      Cuts: 97      929     --- 
      0     0      274.0743   128       -0.8900      Cuts: 76     1049     --- 
Detecting symmetries...
      0     0      274.0422   128       -0.8900      Cuts: 85     1111     --- 
      0     0      273.9752   128       -0.8900      Cuts: 47     1181     --- 
      0     0      273.7887   128       -0.8900      Cuts: 64     1262     --- 
      0     0      273.5499   128       -0.8900      Cuts: 59     1337     --- 
      0     0      273.4257   128       -0.8900      Cuts: 88     1423     --- 
      0     0      273.1863   128       -0.8900      Cuts: 46     1476     --- 
      0     0      273.0081   128       -0.8900      Cuts: 67     1510     --- 
      0     0      272.9724   128       -0.8900      Cuts: 43     1547     --- 
      0     0      272.7316   128       -0.8900      Cuts: 29     1636     --- 
      0     0      272.6635   128       -0.8900      Cuts: 64     1691     --- 
      0     0      272.4935   128       -0.8900      Cuts: 77     1758     --- 
      0     0      272.1595   128       -0.8900      Cuts: 54     1832     --- 
      0     0      271.9948   128       -0.8900      Cuts: 75     1908     --- 
      0     0      271.7750   128       -0.8900      Cuts: 94     1974     --- 
      0     0      271.7382   128       -0.8900      Cuts: 47     2019     --- 
      0     0      271.7052   128       -0.8900      Cuts: 52     2050     --- 
*     0+    0                           26.3770      271.7052           930.08%
*     0+    0                          102.7406      271.7052           164.46%
      0     0        cutoff            102.7406      271.7052     2050  164.46%
Detecting symmetries...
      0     2      271.7052   140      102.7406      271.6898     2050  164.44%
Elapsed time = 0.24 sec. (220.31 ticks, tree = 0.01 MB, solutions = 2)
*    40+   34                          218.4750      271.3328            24.19%
    234   210      264.9695    80      218.4750      270.3401     9367   23.74%
*   260+  223                          224.6143      270.3401            20.36%
*   360+  304                          225.3548      270.1964            19.90%
    521   437      253.2760    79      225.3548      269.8750    16854   19.76%
    817   672      250.0180    60      225.3548      269.0016    25118   19.37%

Performing restart 1

Repeating presolve.
Tried aggregator 1 time.
MIP Presolve modified 220 coefficients.
Reduced MIP has 379 rows, 444 columns, and 1483 nonzeros.
Reduced MIP has 351 binaries, 65 generals, 0 SOSs, and 0 indicators.
Presolve time = 0.00 sec. (1.29 ticks)
Tried aggregator 1 time.
Reduced MIP has 379 rows, 444 columns, and 1483 nonzeros.
Reduced MIP has 351 binaries, 65 generals, 0 SOSs, and 0 indicators.
Presolve time = 0.00 sec. (1.08 ticks)
Represolve time = 0.01 sec. (8.50 ticks)
    944     0      271.4441   144      225.3548     Cuts: 116    28247   19.32%
    944     0      269.8848   144      225.3548     Cuts: 109    28502   19.32%
    944     0      269.6773   144      225.3548     Cuts: 114    28661   19.32%
    944     0      269.4182   144      225.3548     Cuts: 115    28759   19.32%
    944     0      269.3723   144      225.3548      Cuts: 87    28865   19.32%
    944     0      268.8992   144      225.3548      Cuts: 65    29162   19.32%
    944     0      268.4323   144      225.3548      Cuts: 89    29364   19.12%
    944     0      268.3139   144      225.3548     Cuts: 102    29482   19.06%
    944     0      268.1873   144      225.3548      Cuts: 99    29612   19.01%
    944     0      268.1229   144      225.3548      Cuts: 74    29744   18.98%
    944     0      268.1215   144      225.3548      Cuts: 69    29813   18.98%
    944     0      268.1197   144      225.3548      Cuts: 37    29856   18.98%
    944     0      268.0825   144      225.3548      Cuts: 53    29916   18.96%
    944     0      268.0652   144      225.3548      Cuts: 73    29977   18.95%
    944     0      268.0428   144      225.3548      Cuts: 56    30017   18.94%
    944     0      268.0108   144      225.3548      Cuts: 69    30065   18.93%
    944     0      268.0096   144      225.3548      Cuts: 48    30116   18.93%
*   944+    0                          225.3556      268.0096            18.93%
*   944+    0                          231.5877      268.0096            15.73%
    944     0        cutoff            231.5877      268.0096    30116   15.73%
    944     2      268.0096   163      231.5877      267.9229    30116   15.69%
    948     6      266.0029   125      231.5877      267.5575    30946   15.53%
    979    29      258.4827   137      231.5877      264.2267    32118   14.09%
   1057    92      263.8344   135      231.5877      263.8097    34543   13.91%
*  1124+  126                          240.6303      263.3740             9.45%
*  1169   158      integral     0      240.6341      263.3736    38578    9.45%
   1201   179      259.4302   137      240.6341      262.9597    41893    9.28%
*  1234+  192                          242.3267      262.9588             8.51%
*  1334+  231                          242.3282      259.2016             6.96%
   1370   249      242.7086    94      242.3282      258.0726    57810    6.50%
Elapsed time = 3.98 sec. (4537.37 ticks, tree = 0.22 MB, solutions = 11)
   1664   343      255.0905   120      242.3282      255.7138    71852    5.52%
   2054   451      243.1880    70      242.3282      253.4677    86183    4.60%
*  2151   451      integral     0      243.6588      252.8158    90100    3.76%
*  2251+  447                          243.6617      251.3701             3.16%
*  2414+  511                          243.6622      251.2277             3.10%
   2606   570      249.3281    30      243.6622      251.2252   102317    3.10%
   3041   537      247.4123    86      243.6622      250.2235   116915    2.69%
   3563   382        cutoff            243.6622      247.7487   132248    1.68%

GUB cover cuts applied:  7
Clique cuts applied:  58
Cover cuts applied:  9
Implied bound cuts applied:  54
Flow cuts applied:  10
Mixed integer rounding cuts applied:  87
Zero-half cuts applied:  47
Lift and project cuts applied:  35
Gomory fractional cuts applied:  7

Root node processing (before b&c):
  Real time             =    0.24 sec. (220.44 ticks)
Sequential b&c:
  Real time             =    8.68 sec. (9990.91 ticks)
                          ------------
Total (root+branch&cut) =    8.93 sec. (10211.35 ticks)

Solution pool: 15 solutions saved.

MIP - Integer optimal, tolerance (0.0001/1e-06):  Objective =  2.4366216300e+02
Current MIP best bound =  2.4368037153e+02 (gap = 0.0182085, 0.01%)
Solution time =    8.93 sec.  Iterations = 143473  Nodes = 4102 (146)
Deterministic time = 10211.35 ticks  (1143.88 ticks/sec)


Incumbent solution
Variable Name           Solution Value
F                           255.000000
f1                            0.917837
f2                           10.420000
y103                          1.000000
y131                          1.000000
y148                          1.000000
y129                          1.000000
y32                           1.000000
y126                          1.000000
y1                            1.000000
y13                           1.000000
y167                          1.000000
y124                          1.000000
y156                          1.000000
y136                          1.000000
y22                           1.000000
y145                          1.000000
y161                          1.000000
s39                           6.000000
s47                           6.000000
s63                           6.000000
s70                           6.000000
s85                           6.000000
s92                           6.000000
s101                          6.000000
s138                          6.000000
s175                          6.000000
s141                          6.010000
s154                          6.030000
s103                          6.102210
s183                          6.180000
s131                          7.135300
s11                           6.380000
s122                          6.380000
s148                          7.096696
s129                          6.789412
s32                           6.972912
s157                          6.720000
s126                          7.447387
s1                            6.870000
s13                           7.884907
s167                          7.051871
s181                          7.040000
s4                            7.060000
s81                           7.180000
s124                          8.066245
s30                           7.310000
s16                           7.360000
s87                           7.410000
s156                          8.302500
s136                          8.150978
s22                           8.402331
s27                           7.520000
s145                          7.722246
s161                          7.955509
x174x131x1                    1.000000
x115x129x1                    1.000000
x115x1x1                      1.000000
x17x131x1                     1.000000
x17x1x1                       1.000000
x158x161x1                    2.000000
x46x167x2                     2.000000
x150x32x2                     1.000000
x135x103x2                    2.000000
x174x148x3                    1.000000
x79x129x3                     1.000000
x79x32x3                      1.000000
x99x126x3                     2.000000
x150x148x3                    1.000000
x103x145x2                    2.000000
x131x156x1                    2.000000
x148x0x3                      2.000000
x129x22x1                     1.000000
x129x124x3                    1.000000
x32x124x2                     1.000000
x32x22x3                      1.000000
x126x0x3                      2.000000
x1x13x1                       2.000000
x13x0x1                       2.000000
x167x136x2                    2.000000
x124x0x2                      1.000000
x124x0x3                      1.000000
x156x0x1                      2.000000
x136x0x2                      2.000000
x22x0x1                       1.000000
x22x0x3                       1.000000
x145x0x2                      2.000000
x161x0x1                      2.000000
s174                          4.930386
z174z131z1                    1.000000
z174z148z3                    1.000000
z174z30z3                     1.000000
z174z156z1                    1.000000
s115                          4.854027
z115z129z1                    1.000000
z115z1z1                      1.000000
z115z13z1                     1.000000
z115z156z1                    1.000000
z115z161z1                    1.000000
s79                           5.304290
z79z148z3                     1.000000
z79z129z3                     1.000000
z79z32z3                      1.000000
z79z126z3                     1.000000
z79z30z3                      1.000000
s17                           5.302381
z17z131z1                     1.000000
z17z1z1                       1.000000
z17z13z1                      1.000000
z17z156z1                     1.000000
z17z161z1                     1.000000
s46                           5.303183
z46z167z2                     1.000000
z46z87z2                      1.000000
z46z136z2                     1.000000
z46z145z2                     1.000000
s158                          5.866474
z158z156z1                    1.000000
z158z161z1                    1.000000
s99                           5.748297
z99z126z3                     1.000000
z99z30z3                      1.000000
s150                          5.484956
z150z148z3                    1.000000
z150z32z2                     1.000000
z150z30z3                     1.000000
z150z87z2                     1.000000
z150z136z2                    1.000000
z150z145z2                    1.000000
s135                          4.685260
z135z103z2                    1.000000
z135z167z2                    1.000000
z135z87z2                     1.000000
z135z136z2                    1.000000
z135z145z2                    1.000000
z141z156z1                    1.000000
z103z136z2                    1.000000
z103z145z2                    1.000000
z131z156z1                    1.000000
z129z124z3                    1.000000
z129z22z1                     1.000000
z32z124z2                     1.000000
z32z22z3                      1.000000
z1z13z1                       1.000000
z167z136z2                    1.000000
All other variables in the range 1-1196 are 0.
